Gurobi Optimizer version 9.1.2 build v9.1.2rc0 (linux64)
Thread count: 36 physical cores, 72 logical processors, using up to 32 threads
Optimize a model with 12 rows, 57 columns and 590 nonzeros
Model fingerprint: 0xf32eec78
Model has 47 quadratic constraints
Coefficient statistics:
  Matrix range     [2e-05, 3e+00]
  QMatrix range    [1e+00, 1e+00]
  QLMatrix range   [1e+00, 1e+00]
  Objective range  [8e-03, 7e-01]
  Bounds range     [1e+00, 1e+00]
  RHS range        [1e+00, 1e+00]
Presolve removed 9 rows and 0 columns

Continuous model is non-convex -- solving as a MIP.

Presolve removed 9 rows and 0 columns
Presolve time: 0.00s
Presolved: 189 rows, 57 columns, 443 nonzeros
Presolved model has 47 bilinear constraint(s)
Variable types: 57 continuous, 0 integer (0 binary)

Root relaxation: objective -1.743721e+00, 44 iterations, 0.00 seconds

    Nodes    |    Current Node    |     Objective Bounds      |     Work
 Expl Unexpl |  Obj  Depth IntInf | Incumbent    BestBd   Gap | It/Node Time

     0     0   -1.74372    0   38          -   -1.74372      -     -    0s
H    0     0                       0.6147548   -1.74372   384%     -    0s
     0     0   -1.64739    0    1    0.61475   -1.64739   368%     -    0s
H    0     0                      -1.6450460   -1.64739  0.14%     -    0s
     0     0     cutoff    0        -1.64505   -1.64505  0.00%     -    0s

Cutting planes:
  RLT: 25
  BQP: 3

Explored 1 nodes (76 simplex iterations) in 0.01 seconds
Thread count was 32 (of 72 available processors)

Solution count 2: -1.64505 0.614755 
No other solutions better than -1.64505

Optimal solution found (tolerance 1.00e-04)
Best objective -1.645045978473e+00, best bound -1.645045978473e+00, gap 0.0000%

User-callback calls 78, time in user-callback 0.00 sec
Gurobi Optimizer version 9.1.2 build v9.1.2rc0 (linux64)
Thread count: 36 physical cores, 72 logical processors, using up to 32 threads
Optimize a model with 24 rows, 125 columns and 2580 nonzeros
Model fingerprint: 0x5592cbe9
Model has 105 quadratic constraints
Coefficient statistics:
  Matrix range     [4e-06, 5e+01]
  QMatrix range    [1e+00, 1e+00]
  QLMatrix range   [1e+00, 1e+00]
  Objective range  [1e-02, 1e+00]
  Bounds range     [1e+00, 1e+00]
  RHS range        [1e+00, 1e+00]
Presolve removed 11 rows and 0 columns

Continuous model is non-convex -- solving as a MIP.

Presolve removed 11 rows and 0 columns
Presolve time: 0.00s
Presolved: 428 rows, 125 columns, 2018 nonzeros
Presolved model has 105 bilinear constraint(s)
Variable types: 125 continuous, 0 integer (0 binary)

Root relaxation: objective -5.522860e+00, 134 iterations, 0.00 seconds

    Nodes    |    Current Node    |     Objective Bounds      |     Work
 Expl Unexpl |  Obj  Depth IntInf | Incumbent    BestBd   Gap | It/Node Time

     0     0   -5.52286    0   75          -   -5.52286      -     -    0s
H    0     0                       0.2286082   -5.52286  2516%     -    0s
     0     0   -4.20520    0   83    0.22861   -4.20520  1939%     -    0s
H    0     0                      -1.0303687   -4.20520   308%     -    0s
     0     0   -4.20236    0   83   -1.03037   -4.20236   308%     -    0s
     0     0   -4.07308    0   80   -1.03037   -4.07308   295%     -    0s
H    0     0                      -2.1662013   -4.07308  88.0%     -    0s
     0     0   -4.06730    0   53   -2.16620   -4.06730  87.8%     -    0s
     0     0   -4.03637    0   95   -2.16620   -4.03637  86.3%     -    0s
     0     0   -4.02616    0   95   -2.16620   -4.02616  85.9%     -    0s
     0     0   -3.99981    0   61   -2.16620   -3.99981  84.6%     -    0s
     0     0   -3.99377    0   48   -2.16620   -3.99377  84.4%     -    0s
     0     0   -3.98865    0   61   -2.16620   -3.98865  84.1%     -    0s
     0     0   -3.98855    0   61   -2.16620   -3.98855  84.1%     -    0s
     0     0   -3.98797    0   48   -2.16620   -3.98797  84.1%     -    0s
     0     0   -3.98786    0   61   -2.16620   -3.98786  84.1%     -    0s
H    0     0                      -2.7267108   -3.98786  46.3%     -    0s
H    0     0                      -3.1133398   -3.98786  28.1%     -    0s
H    0     0                      -3.2009513   -3.98786  24.6%     -    0s
H    0     0                      -3.3016847   -3.98786  20.8%     -    0s
H    0     0                      -3.3718370   -3.98786  18.3%     -    0s
H    0     0                      -3.3850502   -3.98786  17.8%     -    0s
     0     2   -3.98786    0   61   -3.38505   -3.98786  17.8%     -    0s
*  267   135              13      -3.3996972   -3.41476  0.44%  17.7    0s
*  384   109              16      -3.3998143   -3.41316  0.39%  13.8    0s
*  386   109              17      -3.3998318   -3.41316  0.39%  13.8    0s
*  399   109              16      -3.4011453   -3.41316  0.35%  13.5    0s
*  468   126              19      -3.4016266   -3.41316  0.34%  12.0    0s
*  472   126              15      -3.4035074   -3.41316  0.28%  12.0    0s
*  474   126              19      -3.4082121   -3.41316  0.15%  11.9    0s
*  571     7              17      -3.4082210   -3.40954  0.04%  10.7    0s
*  577     7              20      -3.4082233   -3.40954  0.04%  10.6    0s
*  634    36              19      -3.4083325   -3.40870  0.01%   9.8    0s
*  638    36              18      -3.4083911   -3.40861  0.01%   9.8    0s

Cutting planes:
  RLT: 36
  BQP: 5
  PSD: 12

Explored 668 nodes (6801 simplex iterations) in 0.43 seconds
Thread count was 32 (of 72 available processors)

Solution count 10: -3.40839 -3.40833 -3.40822 ... -3.39981

Optimal solution found (tolerance 1.00e-04)
Best objective -3.408391072262e+00, best bound -3.408612125091e+00, gap 0.0065%

User-callback calls 1589, time in user-callback 0.00 sec



objective value: -3.4083910722624564
objective bound: -3.4086121250912425
x_opt: [1.0, 0.0, 1.0, 0.0, 0.17580228263394523, 0.0, 1.0, 1.0, 0.4816549393387627, 0.0, 0.0, 0.0, 0.7525942972302886, 0.0, 0.45371730656503434, 0.3101317119009387, 0.0, 0.0, 0.0, 0.0]
GUROBI solution time: 0.42505621910095215




